(set-logic HORN)
(declare-datatypes ((Nat_1 0)) (((Z_1 ) (S_1 (unS_0 Nat_1)))))
(declare-fun diseqNat_0 (Nat_1 Nat_1) Bool)
(declare-fun unS_1 (Nat_1 Nat_1) Bool)
(declare-fun isZ_0 (Nat_1) Bool)
(declare-fun isS_0 (Nat_1) Bool)
(assert (forall ((x_28 Nat_1) (x_27 Nat_1))
	(=> (= x_28 (S_1 x_27))
	    (unS_1 x_27 x_28))))
(assert (isZ_0 Z_1))
(assert (forall ((x_29 Nat_1))
	(isS_0 (S_1 x_29))))
(assert (forall ((x_30 Nat_1))
	(diseqNat_0 Z_1 (S_1 x_30))))
(assert (forall ((x_31 Nat_1))
	(diseqNat_0 (S_1 x_31) Z_1)))
(assert (forall ((x_32 Nat_1) (x_33 Nat_1))
	(=> (diseqNat_0 x_32 x_33)
	    (diseqNat_0 (S_1 x_32) (S_1 x_33)))))
(declare-fun add_0 (Nat_1 Nat_1 Nat_1) Bool)
(declare-fun minus_0 (Nat_1 Nat_1 Nat_1) Bool)
(declare-fun le_0 (Nat_1 Nat_1) Bool)
(declare-fun ge_0 (Nat_1 Nat_1) Bool)
(declare-fun lt_0 (Nat_1 Nat_1) Bool)
(declare-fun gt_0 (Nat_1 Nat_1) Bool)
(declare-fun mult_0 (Nat_1 Nat_1 Nat_1) Bool)
(declare-fun div_0 (Nat_1 Nat_1 Nat_1) Bool)
(declare-fun mod_0 (Nat_1 Nat_1 Nat_1) Bool)
(assert (forall ((y_4 Nat_1))
	(add_0 y_4 Z_1 y_4)))
(assert (forall ((x_25 Nat_1) (y_4 Nat_1) (r_0 Nat_1))
	(=> (add_0 r_0 x_25 y_4)
	    (add_0 (S_1 r_0) (S_1 x_25) y_4))))
(assert (forall ((y_4 Nat_1))
	(minus_0 Z_1 Z_1 y_4)))
(assert (forall ((x_25 Nat_1) (y_4 Nat_1) (r_0 Nat_1))
	(=> (minus_0 r_0 x_25 y_4)
	    (minus_0 (S_1 r_0) (S_1 x_25) y_4))))
(assert (forall ((y_4 Nat_1))
	(le_0 Z_1 y_4)))
(assert (forall ((x_25 Nat_1) (y_4 Nat_1))
	(=> (le_0 x_25 y_4)
	    (le_0 (S_1 x_25) (S_1 y_4)))))
(assert (forall ((y_4 Nat_1))
	(ge_0 y_4 Z_1)))
(assert (forall ((x_25 Nat_1) (y_4 Nat_1))
	(=> (ge_0 x_25 y_4)
	    (ge_0 (S_1 x_25) (S_1 y_4)))))
(assert (forall ((y_4 Nat_1))
	(lt_0 Z_1 (S_1 y_4))))
(assert (forall ((x_25 Nat_1) (y_4 Nat_1))
	(=> (lt_0 x_25 y_4)
	    (lt_0 (S_1 x_25) (S_1 y_4)))))
(assert (forall ((y_4 Nat_1))
	(gt_0 (S_1 y_4) Z_1)))
(assert (forall ((x_25 Nat_1) (y_4 Nat_1))
	(=> (gt_0 x_25 y_4)
	    (gt_0 (S_1 x_25) (S_1 y_4)))))
(assert (forall ((y_4 Nat_1))
	(mult_0 Z_1 Z_1 y_4)))
(assert (forall ((x_25 Nat_1) (y_4 Nat_1) (r_0 Nat_1) (z_3 Nat_1))
	(=>	(and (mult_0 r_0 x_25 y_4)
			(add_0 z_3 r_0 y_4))
		(mult_0 z_3 (S_1 x_25) y_4))))
(assert (forall ((x_25 Nat_1) (y_4 Nat_1))
	(=> (lt_0 x_25 y_4)
	    (div_0 Z_1 x_25 y_4))))
(assert (forall ((x_25 Nat_1) (y_4 Nat_1) (r_0 Nat_1) (z_3 Nat_1))
	(=>	(and (ge_0 x_25 y_4)
			(minus_0 z_3 x_25 y_4)
			(div_0 r_0 z_3 y_4))
		(div_0 (S_1 r_0) x_25 y_4))))
(assert (forall ((x_25 Nat_1) (y_4 Nat_1))
	(=> (lt_0 x_25 y_4)
	    (mod_0 x_25 x_25 y_4))))
(assert (forall ((x_25 Nat_1) (y_4 Nat_1) (r_0 Nat_1) (z_3 Nat_1))
	(=>	(and (ge_0 x_25 y_4)
			(minus_0 z_3 x_25 y_4)
			(mod_0 r_0 z_3 y_4))
		(mod_0 r_0 x_25 y_4))))
(declare-datatypes ((Nat_0 0)) (((Z_0 ) (S_0 (projS_0 Nat_0)))))
(declare-fun diseqNat_1 (Nat_0 Nat_0) Bool)
(declare-fun projS_1 (Nat_0 Nat_0) Bool)
(declare-fun isZ_1 (Nat_0) Bool)
(declare-fun isS_1 (Nat_0) Bool)
(assert (forall ((x_36 Nat_0) (x_35 Nat_0))
	(=> (= x_36 (S_0 x_35))
	    (projS_1 x_35 x_36))))
(assert (isZ_1 Z_0))
(assert (forall ((x_37 Nat_0))
	(isS_1 (S_0 x_37))))
(assert (forall ((x_38 Nat_0))
	(diseqNat_1 Z_0 (S_0 x_38))))
(assert (forall ((x_39 Nat_0))
	(diseqNat_1 (S_0 x_39) Z_0)))
(assert (forall ((x_40 Nat_0) (x_41 Nat_0))
	(=> (diseqNat_1 x_40 x_41)
	    (diseqNat_1 (S_0 x_40) (S_0 x_41)))))
(declare-datatypes ((list_0 0)) (((nil_0 ) (cons_0 (head_0 Nat_0) (tail_0 list_0)))))
(declare-fun diseqlist_0 (list_0 list_0) Bool)
(declare-fun head_1 (Nat_0 list_0) Bool)
(declare-fun tail_1 (list_0 list_0) Bool)
(declare-fun isnil_0 (list_0) Bool)
(declare-fun iscons_0 (list_0) Bool)
(assert (forall ((x_45 list_0) (x_43 Nat_0) (x_44 list_0))
	(=> (= x_45 (cons_0 x_43 x_44))
	    (head_1 x_43 x_45))))
(assert (forall ((x_45 list_0) (x_43 Nat_0) (x_44 list_0))
	(=> (= x_45 (cons_0 x_43 x_44))
	    (tail_1 x_44 x_45))))
(assert (isnil_0 nil_0))
(assert (forall ((x_46 Nat_0) (x_47 list_0))
	(iscons_0 (cons_0 x_46 x_47))))
(assert (forall ((x_48 Nat_0) (x_49 list_0))
	(diseqlist_0 nil_0 (cons_0 x_48 x_49))))
(assert (forall ((x_50 Nat_0) (x_51 list_0))
	(diseqlist_0 (cons_0 x_50 x_51) nil_0)))
(assert (forall ((x_52 Nat_0) (x_53 list_0) (x_54 Nat_0) (x_55 list_0))
	(=> (diseqNat_1 x_52 x_54)
	    (diseqlist_0 (cons_0 x_52 x_53) (cons_0 x_54 x_55)))))
(assert (forall ((x_52 Nat_0) (x_53 list_0) (x_54 Nat_0) (x_55 list_0))
	(=> (diseqlist_0 x_53 x_55)
	    (diseqlist_0 (cons_0 x_52 x_53) (cons_0 x_54 x_55)))))
(declare-fun x_0 (Bool Nat_0 Nat_0) Bool)
(assert (forall ((x_1 Nat_0) (y_0 Nat_0) (x_2 Nat_0) (y_1 Nat_0) (x_6 Bool) (x_7 Bool))
	(=>	(and (= x_6 x_7)
			(x_0 x_7 x_2 y_1)
			(= x_1 (S_0 x_2))
			(= y_0 (S_0 y_1)))
		(x_0 x_6 x_1 y_0))))
(assert (forall ((x_1 Nat_0) (y_0 Nat_0) (x_2 Nat_0) (x_8 Bool))
	(=>	(and (= x_8 false)
			(= x_1 (S_0 x_2))
			(= y_0 Z_0))
		(x_0 x_8 x_1 y_0))))
(assert (forall ((x_1 Nat_0) (y_0 Nat_0) (z_0 Nat_0) (x_9 Bool))
	(=>	(and (= x_9 false)
			(= x_1 Z_0)
			(= y_0 (S_0 z_0)))
		(x_0 x_9 x_1 y_0))))
(assert (forall ((x_1 Nat_0) (y_0 Nat_0) (x_10 Bool))
	(=>	(and (= x_10 true)
			(= x_1 Z_0)
			(= y_0 Z_0))
		(x_0 x_10 x_1 y_0))))
(declare-fun count_0 (Nat_0 Nat_0 list_0) Bool)
(assert (forall ((x_3 Nat_0) (y_2 list_0) (z_1 Nat_0) (ys_0 list_0) (x_12 Nat_0) (x_13 Nat_0) (x_11 Bool))
	(=>	(and (= x_12 (S_0 x_13))
			(count_0 x_13 x_3 ys_0)
			(= y_2 (cons_0 z_1 ys_0))
			(= x_11 true)
			(x_0 x_11 x_3 z_1))
		(count_0 x_12 x_3 y_2))))
(assert (forall ((x_3 Nat_0) (y_2 list_0) (z_1 Nat_0) (ys_0 list_0) (x_15 Nat_0) (x_16 Nat_0) (x_14 Bool))
	(=>	(and (= x_15 x_16)
			(count_0 x_16 x_3 ys_0)
			(= y_2 (cons_0 z_1 ys_0))
			(= x_14 false)
			(x_0 x_14 x_3 z_1))
		(count_0 x_15 x_3 y_2))))
(assert (forall ((x_3 Nat_0) (y_2 list_0) (x_17 Nat_0))
	(=>	(and (= x_17 Z_0)
			(= y_2 nil_0))
		(count_0 x_17 x_3 y_2))))
(declare-fun x_4 (Nat_0 Nat_0 Nat_0) Bool)
(assert (forall ((x_5 Nat_0) (y_3 Nat_0) (z_2 Nat_0) (x_18 Nat_0) (x_19 Nat_0))
	(=>	(and (= x_18 (S_0 x_19))
			(x_4 x_19 z_2 y_3)
			(= x_5 (S_0 z_2)))
		(x_4 x_18 x_5 y_3))))
(assert (forall ((x_5 Nat_0) (y_3 Nat_0) (x_20 Nat_0))
	(=>	(and (= x_20 y_3)
			(= x_5 Z_0))
		(x_4 x_20 x_5 y_3))))
(assert (forall ((n_0 Nat_0) (m_0 Nat_0) (xs_0 list_0) (x_21 Nat_0) (x_22 Nat_0) (x_23 Nat_0) (x_24 Nat_0))
	(=>	(and (diseqNat_1 x_23 x_24)
			(count_0 x_21 n_0 xs_0)
			(count_0 x_22 n_0 (cons_0 m_0 nil_0))
			(x_4 x_23 x_21 x_22)
			(count_0 x_24 n_0 (cons_0 m_0 xs_0)))
		false)))
(check-sat)
